300
[60,61,62,64,65,66,68,69,70,71,72,73,74,75,76,77,78,79,80,81,82,83,84,86,91,92,94,95,96,97,98,99,100,102,103,104,105,107,108,109,110,111,114,115,116,117,118,119,120,122,123,125,126,127,128,129,130,132,133,134,136,137,138,141,142,143,144,145,146,149,150,152,153,154,156,157,159,160,162,164,165,167,168,169,170,171,172,173,175,176,179,180,181,183,184,185,186,187,188,189,190,192,193,195,196,197,200,202,203,204,206,207,209,210]
[2,4,1,1,2,2,2,2,3,1,1,3,2,1,1,1,2,1,1,2,2,2,5,2,1,1,1,5,1,1,1,5,1,2,1,1,2,1,2,1,2,1,1,2,1,1,3,2,1,1,3,2,2,2,3,1,1,4,1,1,3,3,2,4,2,1,2,1,4,2,1,1,2,2,1,2,1,3,1,2,1,2,1,2,2,2,2,1,2,1,1,1,2,2,2,4,1,1,1,1,1,1,1,1,1,1,2,1,1,4,1,2,1,2]
